networks/zoo_148_3241/zoo_148_3241-lower.txt
Number of groups: 72
Flow 1: {72 2 0} {2 76 0} 
Flow 18: {21 20 0} {20 94 0} 
Flow 32: {33 38 0} {38 112 0} 
Flow 38: {62 45 0} {45 119 0} 
Flow 56: {37 33 0} {33 64 0} {64 138 0} 
Flow 70: {2 7 0} {7 81 0} 
Flow 108: {55 129 0} 
Flow 172: {74 73 0} {73 147 0} 
Flow 300: {7 2 0} {2 72 0} {72 71 0} {71 70 0} {70 73 0} {73 74 0} {74 65 0} {65 66 0} {66 3 0} {3 4 0} {4 1 0} {1 8 0} {8 6 0} {6 44 0} {44 48 0} {48 62 0} {62 34 0} {34 16 0} {16 90 0} 
Flow 319: {58 57 0} {57 51 0} {51 50 0} {50 19 0} {19 93 0} 
Flow 328: {8 29 0} {29 103 0} 
Flow 338: {34 41 0} {41 115 0} 
Flow 360: {8 63 0} {63 137 0} 
Flow 367: {73 70 0} {70 144 0} 
Flow 373: {3 77 0} 
Flow 456: {6 8 0} {8 46 0} {46 120 0} 
Flow 574: {12 52 0} {52 28 0} {28 55 0} {55 54 0} {54 53 0} {53 127 0} 
Flow 720: {9 10 0} {10 39 0} {39 113 0} 
Flow 727: {16 47 0} {47 121 0} 
Flow 779: {11 5 0} {5 8 0} {8 43 0} {43 117 0} 
Flow 838: {60 53 0} {53 54 0} {54 128 0} 
Flow 844: {50 51 0} {51 57 0} {57 58 0} {58 59 0} {59 60 0} {60 134 0} 
Flow 873: {19 50 0} {50 42 0} {42 18 0} {18 17 0} {17 26 0} {26 24 0} {24 23 0} {23 97 0} 
Flow 919: {20 21 0} {21 22 0} {22 18 0} {18 42 0} {42 50 0} {50 124 0} 
Flow 995: {14 88 0} 
Flow 997: {23 24 0} {24 98 0} 
Flow 1091: {25 24 0} {24 26 0} {26 100 0} 
Flow 1148: {26 35 0} {35 37 0} {37 111 0} 
Flow 1206: {27 34 0} {34 108 0} 
Flow 1316: {29 8 0} {8 56 0} {56 130 0} 
Flow 1386: {31 30 0} {30 40 0} {40 114 0} 
Flow 1496: {48 44 0} {44 118 0} 
Flow 1561: {49 123 0} 
Flow 1563: {51 125 0} 
Flow 1574: {62 136 0} 
Flow 1668: {36 35 0} {35 26 0} {26 17 0} {17 91 0} 
Flow 1674: {15 16 0} {16 34 0} {34 27 0} {27 101 0} 
Flow 1760: {44 6 0} {6 80 0} 
Flow 1764: {38 33 0} {33 37 0} {37 40 0} {40 30 0} {30 10 0} {10 84 0} 
Flow 1765: {54 55 0} {55 28 0} {28 52 0} {52 11 0} {11 85 0} 
Flow 1814: {39 10 0} {10 9 0} {9 49 0} {49 32 0} {32 14 0} {14 13 0} {13 87 0} 
Flow 1868: {17 18 0} {18 92 0} 
Flow 1924: {41 34 0} {34 62 0} {62 48 0} {48 122 0} 
Flow 1932: {1 75 0} 
Flow 1952: {22 96 0} 
Flow 1979: {57 131 0} 
Flow 1996: {43 8 0} {8 5 0} {5 79 0} 
Flow 2075: {65 139 0} 
Flow 2084: {46 8 0} 
Flow 2091: {47 16 0} {16 15 0} {15 13 0} {13 14 0} {14 32 0} {32 49 0} {49 9 0} {9 83 0} 
Flow 2150: {40 37 0} {37 35 0} {35 109 0} 
Flow 2158: {5 11 0} {11 52 0} {52 126 0} 
Flow 2163: {59 133 0} 
Flow 2166: {66 140 0} 
Flow 2175: {4 78 0} 
Flow 2186: {13 15 0} {15 89 0} 
Flow 2197: {28 102 0} 
Flow 2199: {32 106 0} 
Flow 2327: {42 116 0} 
Flow 2354: {52 12 0} {12 86 0} 
Flow 2366: {10 30 0} {30 31 0} {31 105 0} 
Flow 2378: {53 60 0} {60 59 0} {59 58 0} {58 132 0} 
Flow 2440: {53 67 0} {67 141 0} 
Flow 2442: {68 69 0} {69 143 0} 
Flow 2582: {56 8 0} {8 1 0} {1 4 0} {4 3 0} {3 66 0} {66 65 0} {65 74 0} {74 148 0} 
Flow 2672: {18 22 0} {22 21 0} {21 95 0} 
Flow 2801: {61 70 0} {70 71 0} {71 72 0} {72 146 0} 
Flow 2815: {63 8 0} {8 82 0} 
Flow 2880: {64 33 0} {33 107 0} 
Flow 3043: {69 68 0} {68 71 0} {71 145 0} 
Flow 3099: {70 61 0} {61 135 0} 
Flow 3171: {71 68 0} {68 142 0} 
Time taken running everything: 22 seconds
