networks/zoo_148_3241/zoo_148_3241-lower.sol
<?xml version = "1.0" encoding="UTF-8" standalone="yes"?>
<CPLEXSolution version="1.2">
 <header
   problemName="networks/zoo_148_3241/zoo_148_3241-lower.lp"
   solutionName="incumbent"
   solutionIndex="-1"
   objectiveValue="72"
   solutionTypeValue="3"
   solutionTypeString="primal"
   solutionStatusValue="101"
   solutionStatusString="integer optimal solution"
   solutionMethodString="mip"
   primalFeasible="1"
   dualFeasible="1"
   MIPNodes="0"
   MIPIterations="9751"
   writeLevel="3"/>
 <quality
   epInt="1.0000000000000001e-05"
   epRHS="9.9999999999999995e-07"
   maxIntInfeas="0"
   maxPrimalInfeas="0"
   maxX="1"
   maxSlack="1"/>
 <variables>
  <variable name="Y(1,2)" index="1" value="1"/>
  <variable name="Y(18,20)" index="2484" value="1"/>
  <variable name="Y(32,38)" index="4532" value="1"/>
  <variable name="Y(38,45)" index="5409" value="1"/>
  <variable name="Y(56,64)" index="8038" value="1"/>
  <variable name="Y(70,7)" index="10011" value="1"/>
  <variable name="Y(108,55)" index="15569" value="1"/>
  <variable name="Y(172,73)" index="24867" value="1"/>
  <variable name="Y(300,16)" index="43370" value="1"/>
  <variable name="Y(319,19)" index="46128" value="1"/>
  <variable name="Y(328,29)" index="47443" value="1"/>
  <variable name="Y(338,41)" index="48905" value="1"/>
  <variable name="Y(360,63)" index="52117" value="1"/>
  <variable name="Y(367,70)" index="53139" value="1"/>
  <variable name="Y(373,3)" index="53942" value="1"/>
  <variable name="Y(456,46)" index="66020" value="1"/>
  <variable name="Y(574,53)" index="83137" value="1"/>
  <variable name="Y(720,39)" index="104293" value="1"/>
  <variable name="Y(727,47)" index="105316" value="1"/>
  <variable name="Y(779,43)" index="112852" value="1"/>
  <variable name="Y(838,54)" index="121418" value="1"/>
  <variable name="Y(844,60)" index="122294" value="1"/>
  <variable name="Y(873,23)" index="126462" value="1"/>
  <variable name="Y(919,50)" index="133159" value="1"/>
  <variable name="Y(995,14)" index="144143" value="1"/>
  <variable name="Y(997,24)" index="144443" value="1"/>
  <variable name="Y(1091,26)" index="158075" value="1"/>
  <variable name="Y(1148,37)" index="166351" value="1"/>
  <variable name="Y(1206,34)" index="174758" value="1"/>
  <variable name="Y(1316,56)" index="190730" value="1"/>
  <variable name="Y(1386,40)" index="200864" value="1"/>
  <variable name="Y(1496,44)" index="216818" value="1"/>
  <variable name="Y(1561,49)" index="226248" value="1"/>
  <variable name="Y(1563,51)" index="226540" value="1"/>
  <variable name="Y(1574,62)" index="228146" value="1"/>
  <variable name="Y(1668,17)" index="241731" value="1"/>
  <variable name="Y(1674,27)" index="242611" value="1"/>
  <variable name="Y(1760,6)" index="255060" value="1"/>
  <variable name="Y(1764,10)" index="255644" value="1"/>
  <variable name="Y(1765,11)" index="255790" value="1"/>
  <variable name="Y(1814,13)" index="262897" value="1"/>
  <variable name="Y(1868,18)" index="270732" value="1"/>
  <variable name="Y(1924,48)" index="278882" value="1"/>
  <variable name="Y(1932,1)" index="279995" value="1"/>
  <variable name="Y(1952,22)" index="282916" value="1"/>
  <variable name="Y(1979,57)" index="286866" value="1"/>
  <variable name="Y(1996,5)" index="289279" value="1"/>
  <variable name="Y(2075,65)" index="300794" value="1"/>
  <variable name="Y(2084,46)" index="302080" value="1"/>
  <variable name="Y(2091,9)" index="303058" value="1"/>
  <variable name="Y(2150,35)" index="311639" value="1"/>
  <variable name="Y(2158,52)" index="312816" value="1"/>
  <variable name="Y(2163,59)" index="313548" value="1"/>
  <variable name="Y(2166,66)" index="313990" value="1"/>
  <variable name="Y(2175,4)" index="315233" value="1"/>
  <variable name="Y(2186,15)" index="316839" value="1"/>
  <variable name="Y(2197,28)" index="318447" value="1"/>
  <variable name="Y(2199,32)" index="318741" value="1"/>
  <variable name="Y(2327,42)" index="337311" value="1"/>
  <variable name="Y(2354,12)" index="341196" value="1"/>
  <variable name="Y(2366,31)" index="342955" value="1"/>
  <variable name="Y(2378,58)" index="344722" value="1"/>
  <variable name="Y(2440,67)" index="353721" value="1"/>
  <variable name="Y(2442,69)" index="354013" value="1"/>
  <variable name="Y(2582,74)" index="374318" value="1"/>
  <variable name="Y(2672,21)" index="387315" value="1"/>
  <variable name="Y(2801,72)" index="406071" value="1"/>
  <variable name="Y(2815,8)" index="408037" value="1"/>
  <variable name="Y(2880,33)" index="417487" value="1"/>
  <variable name="Y(3043,71)" index="441160" value="1"/>
  <variable name="Y(3099,61)" index="449270" value="1"/>
  <variable name="Y(3171,68)" index="459717" value="1"/>
  <variable name="X(1,4,2582)" index="472526" value="1"/>
  <variable name="X(1,8,300)" index="473485" value="1"/>
  <variable name="X(1,75,1932)" index="478358" value="1"/>
  <variable name="X(2,7,70)" index="479737" value="1"/>
  <variable name="X(2,72,300)" index="483208" value="1"/>
  <variable name="X(2,76,1)" index="486150" value="1"/>
  <variable name="X(3,4,300)" index="489690" value="1"/>
  <variable name="X(3,66,2582)" index="495213" value="1"/>
  <variable name="X(3,77,373)" index="496245" value="1"/>
  <variable name="X(4,1,300)" index="499413" value="1"/>
  <variable name="X(4,3,2582)" index="504936" value="1"/>
  <variable name="X(4,78,2175)" index="507770" value="1"/>
  <variable name="X(5,8,779)" index="509615" value="1"/>
  <variable name="X(5,11,2158)" index="514235" value="1"/>
  <variable name="X(5,79,1996)" index="517314" value="1"/>
  <variable name="X(6,8,456)" index="519015" value="1"/>
  <variable name="X(6,44,300)" index="522100" value="1"/>
  <variable name="X(6,80,1760)" index="526801" value="1"/>
  <variable name="X(7,2,300)" index="528582" value="1"/>
  <variable name="X(7,81,70)" index="531593" value="1"/>
  <variable name="X(8,1,2582)" index="537346" value="1"/>
  <variable name="X(8,5,1996)" index="540001" value="1"/>
  <variable name="X(8,6,300)" index="541546" value="1"/>
  <variable name="X(8,29,328)" index="544815" value="1"/>
  <variable name="X(8,43,779)" index="548507" value="1"/>
  <variable name="X(8,46,456)" index="551425" value="1"/>
  <variable name="X(8,56,1316)" index="555526" value="1"/>
  <variable name="X(8,63,360)" index="557811" value="1"/>
  <variable name="X(8,82,2815)" index="563507" value="1"/>
  <variable name="X(9,10,720)" index="564653" value="1"/>
  <variable name="X(9,49,1814)" index="568988" value="1"/>
  <variable name="X(9,83,2091)" index="572506" value="1"/>
  <variable name="X(10,9,1814)" index="575470" value="1"/>
  <variable name="X(10,30,2366)" index="579263" value="1"/>
  <variable name="X(10,39,720)" index="580858" value="1"/>
  <variable name="X(10,84,1764)" index="585143" value="1"/>
  <variable name="X(11,5,779)" index="587399" value="1"/>
  <variable name="X(11,52,2158)" index="592019" value="1"/>
  <variable name="X(11,85,1765)" index="594867" value="1"/>
  <variable name="X(12,52,574)" index="596917" value="1"/>
  <variable name="X(12,86,2354)" index="601938" value="1"/>
  <variable name="X(13,14,2091)" index="604916" value="1"/>
  <variable name="X(13,15,2186)" index="608252" value="1"/>
  <variable name="X(13,87,1814)" index="611121" value="1"/>
  <variable name="X(14,13,1814)" index="614362" value="1"/>
  <variable name="X(14,32,2091)" index="617880" value="1"/>
  <variable name="X(14,88,995)" index="620025" value="1"/>
  <variable name="X(15,13,2091)" index="624362" value="1"/>
  <variable name="X(15,16,1674)" index="627186" value="1"/>
  <variable name="X(15,89,2186)" index="630939" value="1"/>
  <variable name="X(16,15,2091)" index="634085" value="1"/>
  <variable name="X(16,34,1674)" index="636909" value="1"/>
  <variable name="X(16,47,727)" index="639203" value="1"/>
  <variable name="X(16,90,300)" index="642017" value="1"/>
  <variable name="X(17,18,1868)" index="646826" value="1"/>
  <variable name="X(17,26,873)" index="649072" value="1"/>
  <variable name="X(17,91,1668)" index="653108" value="1"/>
  <variable name="X(18,17,873)" index="655554" value="1"/>
  <variable name="X(18,22,2672)" index="660594" value="1"/>
  <variable name="X(18,42,919)" index="662082" value="1"/>
  <variable name="X(18,92,1868)" index="666272" value="1"/>
  <variable name="X(19,50,873)" index="668518" value="1"/>
  <variable name="X(19,93,319)" index="671205" value="1"/>
  <variable name="X(20,21,919)" index="675046" value="1"/>
  <variable name="X(20,94,18)" index="677386" value="1"/>
  <variable name="X(21,20,18)" index="680627" value="1"/>
  <variable name="X(21,22,919)" index="684769" value="1"/>
  <variable name="X(21,95,2672)" index="689763" value="1"/>
  <variable name="X(22,18,919)" index="691251" value="1"/>
  <variable name="X(22,21,2672)" index="696245" value="1"/>
  <variable name="X(22,96,1952)" index="698766" value="1"/>
  <variable name="X(23,24,997)" index="701052" value="1"/>
  <variable name="X(23,97,873)" index="704169" value="1"/>
  <variable name="X(24,23,873)" index="707410" value="1"/>
  <variable name="X(24,26,1091)" index="710869" value="1"/>
  <variable name="X(24,98,997)" index="714016" value="1"/>
  <variable name="X(25,24,1091)" index="717351" value="1"/>
  <variable name="X(26,17,1668)" index="721169" value="1"/>
  <variable name="X(26,24,873)" index="723615" value="1"/>
  <variable name="X(26,35,1148)" index="727131" value="1"/>
  <variable name="X(26,100,1091)" index="730315" value="1"/>
  <variable name="X(27,34,1206)" index="733671" value="1"/>
  <variable name="X(27,101,1674)" index="737380" value="1"/>
  <variable name="X(28,52,1765)" index="740712" value="1"/>
  <variable name="X(28,55,574)" index="742762" value="1"/>
  <variable name="X(28,102,2197)" index="747626" value="1"/>
  <variable name="X(29,8,1316)" index="749986" value="1"/>
  <variable name="X(29,103,328)" index="752239" value="1"/>
  <variable name="X(30,10,1764)" index="756916" value="1"/>
  <variable name="X(30,31,2366)" index="760759" value="1"/>
  <variable name="X(30,40,1386)" index="763020" value="1"/>
  <variable name="X(31,30,1386)" index="766261" value="1"/>
  <variable name="X(31,105,2366)" index="770482" value="1"/>
  <variable name="X(32,14,1814)" index="773171" value="1"/>
  <variable name="X(32,49,2091)" index="776689" value="1"/>
  <variable name="X(32,106,2199)" index="780038" value="1"/>
  <variable name="X(33,37,1764)" index="782844" value="1"/>
  <variable name="X(33,38,32)" index="784353" value="1"/>
  <variable name="X(33,64,56)" index="787618" value="1"/>
  <variable name="X(33,107,2880)" index="793683" value="1"/>
  <variable name="X(34,16,300)" index="794344" value="1"/>
  <variable name="X(34,27,1674)" index="798959" value="1"/>
  <variable name="X(34,41,338)" index="800864" value="1"/>
  <variable name="X(34,62,1924)" index="805691" value="1"/>
  <variable name="X(34,108,1206)" index="808214" value="1"/>
  <variable name="X(35,26,1668)" index="811917" value="1"/>
  <variable name="X(35,37,1148)" index="814638" value="1"/>
  <variable name="X(35,109,2150)" index="818881" value="1"/>
  <variable name="X(36,35,1668)" index="821640" value="1"/>
  <variable name="X(37,33,56)" index="823269" value="1"/>
  <variable name="X(37,35,2150)" index="828604" value="1"/>
  <variable name="X(37,40,1764)" index="831459" value="1"/>
  <variable name="X(37,111,1148)" index="834084" value="1"/>
  <variable name="X(38,33,1764)" index="837941" value="1"/>
  <variable name="X(38,112,32)" index="839450" value="1"/>
  <variable name="X(39,10,1814)" index="844473" value="1"/>
  <variable name="X(39,113,720)" index="846620" value="1"/>
  <variable name="X(40,30,1764)" index="850905" value="1"/>
  <variable name="X(40,37,2150)" index="854532" value="1"/>
  <variable name="X(40,114,1386)" index="857009" value="1"/>
  <variable name="X(41,34,1924)" index="860788" value="1"/>
  <variable name="X(41,115,338)" index="862443" value="1"/>
  <variable name="X(42,18,873)" index="866219" value="1"/>
  <variable name="X(42,50,919)" index="869506" value="1"/>
  <variable name="X(42,116,2327)" index="874155" value="1"/>
  <variable name="X(43,8,1996)" index="877065" value="1"/>
  <variable name="X(43,117,779)" index="879089" value="1"/>
  <variable name="X(44,6,1760)" index="883311" value="1"/>
  <variable name="X(44,48,300)" index="885092" value="1"/>
  <variable name="X(44,118,1496)" index="889529" value="1"/>
  <variable name="X(45,119,38)" index="891312" value="1"/>
  <variable name="X(46,8,2084)" index="896599" value="1"/>
  <variable name="X(46,120,456)" index="898212" value="1"/>
  <variable name="X(47,16,2091)" index="903088" value="1"/>
  <variable name="X(47,121,727)" index="904965" value="1"/>
  <variable name="X(48,44,1496)" index="908975" value="1"/>
  <variable name="X(48,62,300)" index="911020" value="1"/>
  <variable name="X(48,122,1924)" index="915885" value="1"/>
  <variable name="X(49,9,2091)" index="919293" value="1"/>
  <variable name="X(49,32,1814)" index="922257" value="1"/>
  <variable name="X(49,123,1561)" index="925245" value="1"/>
  <variable name="X(50,19,319)" index="927244" value="1"/>
  <variable name="X(50,42,873)" index="931039" value="1"/>
  <variable name="X(50,51,844)" index="934251" value="1"/>
  <variable name="X(50,124,919)" index="937567" value="1"/>
  <variable name="X(51,50,319)" index="940208" value="1"/>
  <variable name="X(51,57,844)" index="943974" value="1"/>
  <variable name="X(51,125,1563)" index="947934" value="1"/>
  <variable name="X(52,11,1765)" index="951377" value="1"/>
  <variable name="X(52,12,2354)" index="955207" value="1"/>
  <variable name="X(52,28,574)" index="956668" value="1"/>
  <variable name="X(52,126,2158)" index="961493" value="1"/>
  <variable name="X(53,54,838)" index="963414" value="1"/>
  <variable name="X(53,60,2378)" index="968195" value="1"/>
  <variable name="X(53,67,2440)" index="971498" value="1"/>
  <variable name="X(53,127,574)" index="972873" value="1"/>
  <variable name="X(54,53,574)" index="976114" value="1"/>
  <variable name="X(54,55,1765)" index="980546" value="1"/>
  <variable name="X(54,128,838)" index="982860" value="1"/>
  <variable name="X(55,28,1765)" index="987028" value="1"/>
  <variable name="X(55,54,574)" index="989078" value="1"/>
  <variable name="X(55,129,108)" index="991853" value="1"/>
  <variable name="X(56,8,2582)" index="997568" value="1"/>
  <variable name="X(56,130,1316)" index="999543" value="1"/>
  <variable name="X(57,51,319)" index="1001787" value="1"/>
  <variable name="X(57,58,844)" index="1005553" value="1"/>
  <variable name="X(57,131,1979)" index="1009929" value="1"/>
  <variable name="X(58,57,319)" index="1011510" value="1"/>
  <variable name="X(58,59,844)" index="1015276" value="1"/>
  <variable name="X(58,132,2378)" index="1020051" value="1"/>
  <variable name="X(59,58,2378)" index="1023292" value="1"/>
  <variable name="X(59,60,844)" index="1024999" value="1"/>
  <variable name="X(59,133,2163)" index="1029559" value="1"/>
  <variable name="X(60,53,838)" index="1031475" value="1"/>
  <variable name="X(60,59,2378)" index="1036256" value="1"/>
  <variable name="X(60,134,844)" index="1037963" value="1"/>
  <variable name="X(61,70,2801)" index="1043161" value="1"/>
  <variable name="X(61,135,3099)" index="1046700" value="1"/>
  <variable name="X(62,34,300)" index="1047142" value="1"/>
  <variable name="X(62,45,38)" index="1050121" value="1"/>
  <variable name="X(62,48,1924)" index="1055248" value="1"/>
  <variable name="X(62,136,1574)" index="1058139" value="1"/>
  <variable name="X(63,8,2815)" index="1062621" value="1"/>
  <variable name="X(63,137,360)" index="1063407" value="1"/>
  <variable name="X(64,33,2880)" index="1069168" value="1"/>
  <variable name="X(64,138,56)" index="1069585" value="1"/>
  <variable name="X(65,66,300)" index="1073070" value="1"/>
  <variable name="X(65,74,2582)" index="1078593" value="1"/>
  <variable name="X(65,139,2075)" index="1081327" value="1"/>
  <variable name="X(66,3,300)" index="1082793" value="1"/>
  <variable name="X(66,65,2582)" index="1088316" value="1"/>
  <variable name="X(66,140,2166)" index="1091141" value="1"/>
  <variable name="X(67,141,2440)" index="1094656" value="1"/>
  <variable name="X(68,69,2442)" index="1097899" value="1"/>
  <variable name="X(68,71,3043)" index="1101741" value="1"/>
  <variable name="X(68,142,3171)" index="1105110" value="1"/>
  <variable name="X(69,68,3043)" index="1108223" value="1"/>
  <variable name="X(69,143,2442)" index="1110863" value="1"/>
  <variable name="X(70,61,3099)" index="1114761" value="1"/>
  <variable name="X(70,71,2801)" index="1117704" value="1"/>
  <variable name="X(70,73,300)" index="1118444" value="1"/>
  <variable name="X(70,144,367)" index="1121752" value="1"/>
  <variable name="X(71,68,3171)" index="1127797" value="1"/>
  <variable name="X(71,70,300)" index="1128167" value="1"/>
  <variable name="X(71,72,2801)" index="1133909" value="1"/>
  <variable name="X(71,145,3043)" index="1137392" value="1"/>
  <variable name="X(72,2,1)" index="1137591" value="1"/>
  <variable name="X(72,71,300)" index="1141131" value="1"/>
  <variable name="X(72,146,2801)" index="1146873" value="1"/>
  <variable name="X(73,70,367)" index="1147680" value="1"/>
  <variable name="X(73,74,300)" index="1150854" value="1"/>
  <variable name="X(73,147,172)" index="1153967" value="1"/>
  <variable name="X(74,65,300)" index="1157336" value="1"/>
  <variable name="X(74,73,172)" index="1160449" value="1"/>
  <variable name="X(74,148,2582)" index="1166100" value="1"/>
 </variables>
</CPLEXSolution>
